%nproc=4
%mem=16GB
%chk=mol_rohf.chk
#p rohf aug-cc-pvdz nosymm int=(nobasistransform)

ROHF TASK

0 1
C        0.08156040       0.63270852       0.00000000
N        0.08156040      -0.57858337      -0.00000000
H       -1.06028517       0.25383251       0.00100000


